NAME : eil51.best.tour
TYPE : TOUR
DIMENSION : 51
TOUR_SECTION
1
32
11
16
50
9
38
5
49
10
39
30
34
21
29
2
20
35
36
3
22
28
31
8
26
7
23
43
24
14
25
13
41
40
19
42
44
45
33
15
37
17
4
18
47
12
46
51
6
48
27
EOF